
acell  8.8955646207E+00  8.8955646207E+00  8.8955646207E+00 Bohr
angdeg 57.263 57.263 57.263

#Definition of the atom types
ntypat 1          # There is only one type of atom
znucl 83          # The keyword "znucl" refers to the atomic number of the
                  # possible type(s) of atom. The pseudopotential(s)
                  # mentioned in the "files" file must correspond
                  # to the type(s) of atom.


#Definition of the atoms
natom 2           # There are two atoms
typat 1 1         # They both are of type 1

xred  2.3568212005E-01  2.3568212005E-01  2.3568212005E-01
      7.6431787995E-01  7.6431787995E-01  7.6431787995E-01

#Definition of the planewave basis set
ecut 16         # Maximal plane-wave kinetic energy cut-off, in Hartree

#Definition of the SCF procedure
nstep 200          # Maximal number of SCF cycles

#Diemac default value ok since Bi is a metal

#Bi is a metal so you should be using a metallic band occupation scheme
occopt 7
#if occopt=4, 5, 6, or 7, the broadening is not based on Fermi-Dirac statistics,
#and tsmear is only a convergence parameter.
#Always check the convergence of the calculation with respect to this parameter,
#and simultaneously, with respect to the sampling of k-points (see nkpt)
tsmear 0.0178

# add to conserve old < 6.7.2 behavior for calculating forces at each SCF step
 optforces 1

 #Definition of the k-point grid
 kptopt -7
 ndivk 30 30 30 30 30 30 30

 kptbounds 0 0 0 # GAMMA
           0 0.5 0.5 # X
           0 0.6298982 0.3701018 # K
           0 0 0 # GAMMA
           0.5 0.5 0.5 # T
           0.2402036 0.7597964 0.5 # W
           0 0.5 0 # L
           0 0  0 # Gamma point in another cell.


prtden 1
iscf -2
nband 30 #faut le mettre à plus, 100 avec SOC
#nbdbuff 4
enunit 1
tolwfr 1.0d-20
getden -1
