
#Definition of the unit cell (data from https://materialsproject.org/materials/mp-23152/)
acell 4.798E+00 4.798E+00 4.798E+00 angstrom
angdeg 57.263 57.263 57.263

#Definition of the atom types
ntypat 1          # There is only one type of atom
znucl 83          # The keyword "znucl" refers to the atomic number of the
                  # possible type(s) of atom. The pseudopotential(s)
                  # mentioned in the "files" file must correspond
                  # to the type(s) of atom.


#Definition of the atoms
natom 2           # There are two atoms
typat 1 1         # They both are of type 1

xred 0.2344 0.2344 0.2344
     0.7656 0.7656 0.7656

#Definition of the planewave basis set
ecut 17         # Maximal plane-wave kinetic energy cut-off, in Hartree

#Definition of the SCF procedure
nstep 20          # Maximal number of SCF cycles
toldfe 1.0d-8     # Will stop when, twice in a row, the difference
                  # between two consecutive evaluations of total energy
                  # differ by less than toldfe (in Hartree)
                  # This value is way too large for most realistic studies of materials

#Diemac default value ok since Bi is a metal
#diemac 2.0        # Although this is not mandatory, it is worth to
                  # precondition the SCF cycle. The model dielectric
                  # function used as the standard preconditioner
                  # is described in the "dielng" input variable section.
                  # Here, we follow the prescriptions for molecules
                  # in a big box

#Bi is a metal so you should be using a metallic band occupation scheme
occopt 7

# add to conserve old < 6.7.2 behavior for calculating forces at each SCF step
optforces 1

#Definition of the k-point grid
kptopt 1

#%%<BEGIN TEST_INFO>
#%% [setup]
#%% executable = abinit
#%% [files]
#%% files_to_test =
#%%   tbase1_1.out, tolnlines=  0, tolabs=  0.000e+00, tolrel=  0.000e+00
#%% psp_files =  01h.pspgth
#%% [paral_info]
#%% max_nprocs = 1
#%% [extra_info]
#%% authors =
#%% keywords =
#%% description =
#%%<END TEST_INFO>
