tsmear 0.5
ngktp 3
etotal -12.0592768760000002
ngktp 4
etotal -12.0606103529999995
ngktp 5
etotal -12.0602526470000004
acell 9.7244864464E+00 9.7244864464E+00 9.7244864464E+00 Bohr
tsmear .485
ngktp 3
etotal -12.0299417729999991
ngktp 4
etotal -12.0312668130000002
ngktp 5
etotal -12.0309142550000008
acell 9.7184365440E+00 9.7184365440E+00 9.7184365440E+00 Bohr
tsmear .470
ngktp 3
etotal -12.0007261159999992
ngktp 4
etotal -12.0020421689999992
ngktp 5
etotal -12.0016950510000004
acell 9.7119994869E+00 9.7119994869E+00 9.7119994869E+00 Bohr
tsmear .455
ngktp 3
etotal -11.9716377909999991
ngktp 4
etotal -11.9729442469999992
ngktp 5
etotal -11.9726028939999996
acell 9.7052027912E+00 9.7052027912E+00 9.7052027912E+00 Bohr
tsmear .440
ngktp 3
etotal -11.9426852399999994
ngktp 4
etotal -11.9439814450000004
ngktp 5
etotal -11.9436462120000009
acell 9.6978715315E+00 9.6978715315E+00 9.6978715315E+00 Bohr
tsmear .425
ngktp 3
etotal -11.9138775110000008
ngktp 4
etotal -11.9151627419999997
ngktp 5
etotal -11.9148339700000001
acell 9.6900297372E+00 9.6900297372E+00 9.6900297372E+00 Bohr
tsmear .410
ngktp 3
etotal -11.8852242879999999
ngktp 4
etotal -11.8864977039999999
ngktp 5
etotal -11.8861757879999992
acell 9.6816074931E+00 9.6816074931E+00 9.6816074931E+00 Bohr
tsmear .395
ngktp 3
etotal -11.8567358699999996
ngktp 4
etotal -11.8579965709999993
ngktp 5
etotal -11.8576818409999998
acell 9.6726924044E+00 9.6726924044E+00 9.6726924044E+00 Bohr
tsmear .380
ngktp 3
etotal -11.8284231850000001
ngktp 4
etotal -11.8296701950000003
ngktp 5
etotal -11.8293629980000006
acell 9.6632367174E+00 9.6632367174E+00 9.6632367174E+00 Bohr
tsmear .365
ngktp 3
etotal -11.8002977609999995
ngktp 4
etotal -11.8015300500000002
ngktp 5
etotal -11.8012307189999994
acell 9.6529946037E+00 9.6529946037E+00 9.6529946037E+00 Bohr
tsmear .350
ngktp 3
etotal -11.7723717000000008
ngktp 4
etotal -11.7735882430000007
ngktp 5
etotal -11.7732971249999991
acell 9.6419787859E+00 9.6419787859E+00 9.6419787859E+00 Bohr
tsmear .335
ngktp 3
etotal -11.7446575309999997
ngktp 4
etotal -11.7458574910000006
ngktp 5
etotal -11.7455749209999993
acell 9.6299663491E+00 9.6299663491E+00 9.6299663491E+00 Bohr
tsmear .320
ngktp 3
etotal -11.7171684480000007
ngktp 4
etotal -11.7183511770000006
ngktp 5
etotal -11.7180774690000007
acell 9.6166238983E+00 9.6166238983E+00 9.6166238983E+00 Bohr
tsmear .305
ngktp 3
etotal -11.6899181880000000
ngktp 4
etotal -11.6910833340000000
ngktp 5
etotal -11.6908188020000008
acell 9.6018104772E+00 9.6018104772E+00 9.6018104772E+00 Bohr
tsmear .290
ngktp 3
etotal -11.6629212290000002
ngktp 4
etotal -11.6640687879999998
ngktp 5
etotal -11.6638136800000005
acell 9.5852297518E+00 9.5852297518E+00 9.5852297518E+00 Bohr
tsmear .275
ngktp 3
etotal -11.6361930040000008
ngktp 4
etotal -11.6373231209999997
ngktp 5
etotal -11.6370778619999999
acell 9.5664762047E+00 9.5664762047E+00 9.5664762047E+00 Bohr
tsmear .260
ngktp 3
etotal -11.6097506970000008
ngktp 4
etotal -11.6108629319999999
ngktp 5
etotal -11.6106283660000003
acell 9.5455046236E+00 9.5455046236E+00 9.5455046236E+00 Bohr
tsmear .245
ngktp 3
etotal -11.5836132030000005
ngktp 4
etotal -11.5847064119999992
ngktp 5
etotal -11.5844840629999997
acell 9.5223138454E+00 9.5223138454E+00 9.5223138454E+00 Bohr
tsmear .230
ngktp 3
etotal -11.5578026860000005
ngktp 4
etotal -11.5588749940000000
ngktp 5
etotal -11.5586670429999998
acell 9.4966166022E+00 9.4966166022E+00 9.4966166022E+00 Bohr
tsmear .215
ngktp 3
etotal -11.5323464530000006
ngktp 4
etotal -11.5333957020000000
ngktp 5
etotal -11.5332050529999997
acell 9.4676993789E+00 9.4676993789E+00 9.4676993789E+00 Bohr
tsmear .200
ngktp 3
etotal -11.5072830239999995
ngktp 4
etotal -11.5083055939999994
ngktp 5
etotal -11.5081354470000008
acell 9.4348863109E+00 9.4348863109E+00 9.4348863109E+00 Bohr
tsmear .185
ngktp 3
etotal -11.4826667990000004
ngktp 4
etotal -11.4836582000000007
acell 9.4162475843E+00 9.4162475843E+00 9.4162475843E+00 Bohr
tsmear .170
ngktp 3
etotal -11.4585736459999996
ngktp 4
etotal -11.4595302340000007
acell 9.3707666467E+00 9.3707666467E+00 9.3707666467E+00 Bohr
tsmear .155
ngktp 3
etotal -11.4351148990000002
ngktp 4
etotal -11.4360328740000003
acell 9.3209150480E+00 9.3209150480E+00 9.3209150480E+00 Bohr
tsmear .140
ngktp 3
etotal -11.4124394589999998
ngktp 4
etotal -11.4133203349999999
acell 9.2641880313E+00 9.2641880313E+00 9.2641880313E+00 Bohr
tsmear .125
ngktp 3
etotal -11.3907501720000006
ngktp 4
etotal -11.3916058119999999
acell 9.2010415381E+00 9.2010415381E+00 9.2010415381E+00 Bohr
tsmear .110
ngktp 3
etotal -11.3703208080000007
ngktp 4
etotal -11.3711628670000007
acell 9.1311666876E+00 9.1311666876E+00 9.1311666876E+00 Bohr
tsmear .095
ngktp 3
etotal -11.3514742399999999
ngktp 4
etotal -11.3523477209999992
acell 9.0618135261E+00 9.0618135261E+00 9.0618135261E+00 Bohr
tsmear .080
ngktp 3
etotal -11.3344959480000007
ngktp 4
etotal -11.3354838420000004
acell 8.9915821521E+00 8.9915821521E+00 8.9915821521E+00 Bohr
tsmear .065
ngktp 3
etotal -11.3196062439999992
ngktp 4
etotal -11.3208797029999992
ngktp 5
etotal -11.3211058720000004
acell 8.9172270191E+00 8.9172270191E+00 8.9172270191E+00 Bohr
tsmear .050
ngktp 3
etotal -11.3070837849999997
ngktp 4
etotal -11.3088322059999999
ngktp 5
etotal -11.3091106929999992
acell 8.8653240741E+00 8.8653240741E+00 8.8653240741E+00 Bohr
tsmear .035
ngktp 3
etotal -11.2982755659999992
ngktp 4
etotal -11.3002538030000004
ngktp 5
etotal -11.2998668700000007
acell 8.8638112608E+00 8.8638112608E+00 8.8638112608E+00 Bohr
tsmear .020
ngktp 3
etotal -11.2940322290000008
ngktp 4
etotal -11.2962473259999996
ngktp 5
etotal -11.2948146880000007
ngktp 6
etotal -11.2950087600000000
acell 8.8813372036E+00 8.8813372036E+00 8.8813372036E+00 Bohr
tsmear .005
ngktp 3
etotal -11.2933961699999994
ngktp 4
etotal -11.2952706240000005
ngktp 5
etotal -11.2936801599999992
ngktp 6
etotal -11.2940097410000000
acell 8.8951025135E+00 8.8951025135E+00 8.8951025135E+00 Bohr
Conv acell 0
Conv tsmear 0

