tsmear 0.5
ngktp 3
etotal -15.1828098090000001
ngktp 4
etotal -15.1839055629999997
ngktp 5
etotal -15.1837766970000008
acell 9.9120101040E+00 9.9120101040E+00 9.9120101040E+00 Bohr
tsmear .495
ngktp 3
etotal -15.1730481509999997
ngktp 4
etotal -15.1741416460000007
ngktp 5
etotal -15.1740094689999996
acell 9.9091154262E+00 9.9091154262E+00 9.9091154262E+00 Bohr
tsmear .490
ngktp 3
etotal -15.1632993210000002
ngktp 4
etotal -15.1643904460000005
ngktp 5
etotal -15.1642549100000004
acell 9.9061452008E+00 9.9061452008E+00 9.9061452008E+00 Bohr
tsmear .485
ngktp 3
etotal -15.1535635749999997
ngktp 4
etotal -15.1546522259999996
ngktp 5
etotal -15.1545132850000002
acell 9.9030772109E+00 9.9030772109E+00 9.9030772109E+00 Bohr
tsmear .480
ngktp 3
etotal -15.1438409800000002
ngktp 4
etotal -15.1449272449999999
ngktp 5
etotal -15.1447848490000005
acell 9.8999256195E+00 9.8999256195E+00 9.8999256195E+00 Bohr
tsmear .475
ngktp 3
etotal -15.1341320740000000
ngktp 4
etotal -15.1352157649999999
ngktp 5
etotal -15.1350698569999995
acell 9.8967372619E+00 9.8967372619E+00 9.8967372619E+00 Bohr
tsmear .470
ngktp 3
etotal -15.1244370610000001
ngktp 4
etotal -15.1255180710000001
ngktp 5
etotal -15.1253685739999995
acell 9.8935272360E+00 9.8935272360E+00 9.8935272360E+00 Bohr
tsmear .465
ngktp 3
etotal -15.1147560740000007
ngktp 4
etotal -15.1158344309999997
ngktp 5
etotal -15.1156813000000003
acell 9.8902398193E+00 9.8902398193E+00 9.8902398193E+00 Bohr
tsmear .460
ngktp 3
etotal -15.1050894499999995
ngktp 4
etotal -15.1061651569999995
ngktp 5
etotal -15.1060082910000002
acell 9.8869532816E+00 9.8869532816E+00 9.8869532816E+00 Bohr
tsmear .455
ngktp 3
etotal -15.0954376089999993
ngktp 4
etotal -15.0965105350000002
ngktp 5
etotal -15.0963499090000006
acell 9.8834925874E+00 9.8834925874E+00 9.8834925874E+00 Bohr
tsmear .450
ngktp 3
etotal -15.0858007799999996
ngktp 4
etotal -15.0868708730000005
ngktp 5
etotal -15.0867064230000008
acell 9.8799205008E+00 9.8799205008E+00 9.8799205008E+00 Bohr
tsmear .445
ngktp 3
etotal -15.0761792359999998
ngktp 4
etotal -15.0772464750000008
ngktp 5
etotal -15.0770781270000001
acell 9.8762620721E+00 9.8762620721E+00 9.8762620721E+00 Bohr
tsmear .440
ngktp 3
etotal -15.0665733510000006
ngktp 4
etotal -15.0676376399999992
ngktp 5
etotal -15.0674652489999996
acell 9.8727180287E+00 9.8727180287E+00 9.8727180287E+00 Bohr
tsmear .435
ngktp 3
etotal -15.0569834100000008
ngktp 4
etotal -15.0580446660000007
ngktp 5
etotal -15.0578682209999997
acell 9.8690055367E+00 9.8690055367E+00 9.8690055367E+00 Bohr
tsmear .430
ngktp 3
etotal -15.0474097479999998
ngktp 4
etotal -15.0484678810000005
ngktp 5
etotal -15.0482873500000007
acell 9.8651583245E+00 9.8651583245E+00 9.8651583245E+00 Bohr
tsmear .425
ngktp 3
etotal -15.0378527050000006
ngktp 4
etotal -15.0389076339999992
ngktp 5
etotal -15.0387229080000004
acell 9.8613414203E+00 9.8613414203E+00 9.8613414203E+00 Bohr
tsmear .420
ngktp 3
etotal -15.0283125949999992
ngktp 4
etotal -15.0293642599999995
ngktp 5
etotal -15.0291752869999993
acell 9.8573861882E+00 9.8573861882E+00 9.8573861882E+00 Bohr
tsmear .415
ngktp 3
etotal -15.0187897689999996
ngktp 4
etotal -15.0198380749999991
ngktp 5
etotal -15.0196448549999992
acell 9.8532207503E+00 9.8532207503E+00 9.8532207503E+00 Bohr
tsmear .410
ngktp 3
etotal -15.0092845629999996
ngktp 4
etotal -15.0103294260000002
ngktp 5
etotal -15.0101319429999993
acell 9.8488742464E+00 9.8488742464E+00 9.8488742464E+00 Bohr
tsmear .405
ngktp 3
etotal -14.9997973350000002
ngktp 4
etotal -15.0008386690000002
ngktp 5
etotal -15.0006369270000004
acell 9.8442876382E+00 9.8442876382E+00 9.8442876382E+00 Bohr
tsmear .400
ngktp 3
etotal -14.9903284550000002
ngktp 4
etotal -14.9913661579999999
ngktp 5
etotal -14.9911601640000001
acell 9.8394383651E+00 9.8394383651E+00 9.8394383651E+00 Bohr
tsmear .395
ngktp 3
etotal -14.9808782849999993
ngktp 4
etotal -14.9819122829999998
ngktp 5
etotal -14.9817020270000008
acell 9.8342403183E+00 9.8342403183E+00 9.8342403183E+00 Bohr
tsmear .390
ngktp 3
etotal -14.9714472020000002
ngktp 4
etotal -14.9724774020000009
ngktp 5
etotal -14.9722628520000001
acell 9.8287763582E+00 9.8287763582E+00 9.8287763582E+00 Bohr
tsmear .385
ngktp 3
etotal -14.9620355790000001
ngktp 4
etotal -14.9630618860000002
ngktp 5
etotal -14.9628430290000001
acell 9.8230286239E+00 9.8230286239E+00 9.8230286239E+00 Bohr
tsmear .380
ngktp 3
etotal -14.9526438160000001
ngktp 4
etotal -14.9536661239999997
ngktp 5
etotal -14.9534428980000005
acell 9.8171756214E+00 9.8171756214E+00 9.8171756214E+00 Bohr
tsmear .375
ngktp 3
etotal -14.9432723119999995
ngktp 4
etotal -14.9442905110000002
ngktp 5
etotal -14.9440629089999995
acell 9.8111310880E+00 9.8111310880E+00 9.8111310880E+00 Bohr
tsmear .370
ngktp 3
etotal -14.9339214729999998
ngktp 4
etotal -14.9349354519999995
ngktp 5
etotal -14.9347034819999998
acell 9.8048655339E+00 9.8048655339E+00 9.8048655339E+00 Bohr
tsmear .365
ngktp 3
etotal -14.9245916879999996
ngktp 4
etotal -14.9256013620000001
ngktp 5
etotal -14.9253650720000000
acell 9.7983395751E+00 9.7983395751E+00 9.7983395751E+00 Bohr
tsmear .360
ngktp 3
etotal -14.9152833890000007
ngktp 4
etotal -14.9162886500000003
ngktp 5
etotal -14.9160480389999996
acell 9.7916954290E+00 9.7916954290E+00 9.7916954290E+00 Bohr
tsmear .355
ngktp 3
etotal -14.9059969839999997
ngktp 4
etotal -14.9069977330000007
ngktp 5
etotal -14.9067527900000005
acell 9.7849395901E+00 9.7849395901E+00 9.7849395901E+00 Bohr
tsmear .350
ngktp 3
etotal -14.8967329460000002
ngktp 4
etotal -14.8977290199999999
acell 9.7484697712E+00 9.7484697712E+00 9.7484697712E+00 Bohr
tsmear .345
ngktp 3
etotal -14.8874916099999997
ngktp 4
etotal -14.8884829560000007
acell 9.7439571900E+00 9.7439571900E+00 9.7439571900E+00 Bohr
tsmear .340
ngktp 3
etotal -14.8782735000000006
ngktp 4
etotal -14.8792599110000001
acell 9.7392969825E+00 9.7392969825E+00 9.7392969825E+00 Bohr
tsmear .335
ngktp 3
etotal -14.8690790029999995
ngktp 4
etotal -14.8700603170000001
acell 9.7344704381E+00 9.7344704381E+00 9.7344704381E+00 Bohr
tsmear .330
ngktp 3
etotal -14.8599084640000001
ngktp 4
etotal -14.8608845949999999
acell 9.7295082025E+00 9.7295082025E+00 9.7295082025E+00 Bohr
tsmear .325
ngktp 3
etotal -14.8507625329999993
ngktp 4
etotal -14.8517331559999999
acell 9.7244796709E+00 9.7244796709E+00 9.7244796709E+00 Bohr
tsmear .320
ngktp 3
etotal -14.8416414799999998
ngktp 4
etotal -14.8426064869999994
acell 9.7192811613E+00 9.7192811613E+00 9.7192811613E+00 Bohr
tsmear .315
ngktp 3
etotal -14.8325459419999994
ngktp 4
etotal -14.8335050469999992
acell 9.7139144150E+00 9.7139144150E+00 9.7139144150E+00 Bohr
tsmear .310
ngktp 3
etotal -14.8234761959999997
ngktp 4
etotal -14.8244293119999995
acell 9.7083487121E+00 9.7083487121E+00 9.7083487121E+00 Bohr
tsmear .305
ngktp 3
etotal -14.8144326769999992
ngktp 4
etotal -14.8153797780000005
acell 9.7025067065E+00 9.7025067065E+00 9.7025067065E+00 Bohr
tsmear .300
ngktp 3
etotal -14.8054159700000003
ngktp 4
etotal -14.8063569279999996
acell 9.6963727194E+00 9.6963727194E+00 9.6963727194E+00 Bohr
tsmear .295
ngktp 3
etotal -14.7964265580000003
ngktp 4
etotal -14.7973612520000000
acell 9.6899596317E+00 9.6899596317E+00 9.6899596317E+00 Bohr
tsmear .290
ngktp 3
etotal -14.7874646230000000
ngktp 4
etotal -14.7883932219999998
acell 9.6832931427E+00 9.6832931427E+00 9.6832931427E+00 Bohr
tsmear .285
ngktp 3
etotal -14.7785309900000001
ngktp 4
etotal -14.7794533959999992
acell 9.6762397875E+00 9.6762397875E+00 9.6762397875E+00 Bohr
tsmear .280
ngktp 3
etotal -14.7696260580000001
ngktp 4
etotal -14.7705422160000008
acell 9.6690186913E+00 9.6690186913E+00 9.6690186913E+00 Bohr
tsmear .275
ngktp 3
etotal -14.7607503189999996
ngktp 4
etotal -14.7616602930000003
acell 9.6614948192E+00 9.6614948192E+00 9.6614948192E+00 Bohr
tsmear .270
ngktp 3
etotal -14.7519043050000001
ngktp 4
etotal -14.7528082160000000
acell 9.6535764832E+00 9.6535764832E+00 9.6535764832E+00 Bohr
tsmear .265
ngktp 3
etotal -14.7430886440000002
ngktp 4
etotal -14.7439864919999994
acell 9.6454170285E+00 9.6454170285E+00 9.6454170285E+00 Bohr
tsmear .260
ngktp 3
etotal -14.7343039549999997
ngktp 4
etotal -14.7351957349999996
acell 9.6370594722E+00 9.6370594722E+00 9.6370594722E+00 Bohr
tsmear .255
ngktp 3
etotal -14.7255509569999994
ngktp 4
etotal -14.7264365710000007
acell 9.6285850105E+00 9.6285850105E+00 9.6285850105E+00 Bohr
tsmear .250
ngktp 3
etotal -14.7168303179999995
ngktp 4
etotal -14.7177098090000005
acell 9.6198792687E+00 9.6198792687E+00 9.6198792687E+00 Bohr
tsmear .245
ngktp 3
etotal -14.7081427849999997
ngktp 4
etotal -14.7090163809999996
acell 9.6105580042E+00 9.6105580042E+00 9.6105580042E+00 Bohr
tsmear .240
ngktp 3
etotal -14.6994892999999998
ngktp 4
etotal -14.7003571659999999
acell 9.6005819452E+00 9.6005819452E+00 9.6005819452E+00 Bohr
tsmear .235
ngktp 3
etotal -14.6908707900000000
ngktp 4
etotal -14.6917330649999993
acell 9.5900473190E+00 9.5900473190E+00 9.5900473190E+00 Bohr
tsmear .230
ngktp 3
etotal -14.6822882329999995
ngktp 4
etotal -14.6831450980000007
acell 9.5790351713E+00 9.5790351713E+00 9.5790351713E+00 Bohr
tsmear .225
ngktp 3
etotal -14.6737428849999993
ngktp 4
etotal -14.6745942920000001
acell 9.5676854093E+00 9.5676854093E+00 9.5676854093E+00 Bohr
tsmear .220
ngktp 3
etotal -14.6652361639999995
ngktp 4
etotal -14.6660816870000001
acell 9.5562311464E+00 9.5562311464E+00 9.5562311464E+00 Bohr
tsmear .215
ngktp 3
etotal -14.6567692570000006
ngktp 4
etotal -14.6576086540000006
acell 9.5445646091E+00 9.5445646091E+00 9.5445646091E+00 Bohr
tsmear .210
ngktp 3
etotal -14.6483437740000006
ngktp 4
etotal -14.6491768459999996
acell 9.5323567184E+00 9.5323567184E+00 9.5323567184E+00 Bohr
tsmear .205
ngktp 3
etotal -14.6399613290000001
ngktp 4
etotal -14.6407878470000004
acell 9.5197472625E+00 9.5197472625E+00 9.5197472625E+00 Bohr
tsmear .200
ngktp 3
etotal -14.6316239770000003
ngktp 4
etotal -14.6324435479999995
acell 9.5067927487E+00 9.5067927487E+00 9.5067927487E+00 Bohr
tsmear .195
ngktp 3
etotal -14.6233338550000003
ngktp 4
etotal -14.6241463270000001
acell 9.4930629613E+00 9.4930629613E+00 9.4930629613E+00 Bohr
tsmear .190
ngktp 3
etotal -14.6150932030000007
ngktp 4
etotal -14.6158986710000001
acell 9.4790195156E+00 9.4790195156E+00 9.4790195156E+00 Bohr
tsmear .185
ngktp 3
etotal -14.6069044679999998
ngktp 4
etotal -14.6077038249999998
acell 9.4637581828E+00 9.4637581828E+00 9.4637581828E+00 Bohr
tsmear .180
ngktp 3
etotal -14.5987707039999997
ngktp 4
etotal -14.5995650920000006
acell 9.4480068200E+00 9.4480068200E+00 9.4480068200E+00 Bohr
tsmear .175
ngktp 3
etotal -14.5906959290000007
ngktp 4
etotal -14.5914864380000004
acell 9.4311963397E+00 9.4311963397E+00 9.4311963397E+00 Bohr
tsmear .170
ngktp 3
etotal -14.5826847290000003
ngktp 4
etotal -14.5834724970000007
acell 9.4131974841E+00 9.4131974841E+00 9.4131974841E+00 Bohr
tsmear .165
ngktp 3
etotal -14.5747427379999994
ngktp 4
etotal -14.5755291200000006
acell 9.3927581554E+00 9.3927581554E+00 9.3927581554E+00 Bohr
tsmear .160
ngktp 3
etotal -14.5668761139999994
ngktp 4
etotal -14.5676626870000003
acell 9.3703991975E+00 9.3703991975E+00 9.3703991975E+00 Bohr
tsmear .155
ngktp 3
etotal -14.5590917419999997
ngktp 4
etotal -14.5598798299999999
acell 9.3478865925E+00 9.3478865925E+00 9.3478865925E+00 Bohr
tsmear .150
ngktp 3
etotal -14.5513960779999998
ngktp 4
etotal -14.5521869840000004
acell 9.3279409147E+00 9.3279409147E+00 9.3279409147E+00 Bohr
tsmear .145
ngktp 3
etotal -14.5437947279999999
ngktp 4
etotal -14.5445912110000002
acell 9.3061571905E+00 9.3061571905E+00 9.3061571905E+00 Bohr
tsmear .140
ngktp 3
etotal -14.5362952219999997
ngktp 4
etotal -14.5370999479999998
acell 9.2854514056E+00 9.2854514056E+00 9.2854514056E+00 Bohr
tsmear .135
ngktp 3
etotal -14.5289071050000000
ngktp 4
etotal -14.5297236190000003
acell 9.2625342640E+00 9.2625342640E+00 9.2625342640E+00 Bohr
tsmear .130
ngktp 3
etotal -14.5216414250000003
ngktp 4
etotal -14.5224740089999997
acell 9.2379260129E+00 9.2379260129E+00 9.2379260129E+00 Bohr
tsmear .125
ngktp 3
etotal -14.5145100859999996
ngktp 4
etotal -14.5153625819999998
acell 9.2138329621E+00 9.2138329621E+00 9.2138329621E+00 Bohr
tsmear .120
ngktp 3
etotal -14.5075242660000008
ngktp 4
etotal -14.5084006530000007
acell 9.1897064942E+00 9.1897064942E+00 9.1897064942E+00 Bohr
tsmear .115
ngktp 3
etotal -14.5006946069999998
ngktp 4
etotal -14.5016009750000006
acell 9.1656864305E+00 9.1656864305E+00 9.1656864305E+00 Bohr
tsmear .110
ngktp 3
etotal -14.4940335250000008
ngktp 4
etotal -14.4949768070000005
acell 9.1417255283E+00 9.1417255283E+00 9.1417255283E+00 Bohr
tsmear .105
ngktp 3
etotal -14.4875551439999999
ngktp 4
etotal -14.4885427300000007
acell 9.1173098406E+00 9.1173098406E+00 9.1173098406E+00 Bohr
tsmear .100
ngktp 3
etotal -14.4812721490000005
ngktp 4
etotal -14.4823137640000006
ngktp 5
etotal -14.4827429649999999
acell 9.0495508273E+00 9.0495508273E+00 9.0495508273E+00 Bohr
tsmear .095
ngktp 3
etotal -14.4751962780000003
ngktp 4
etotal -14.4763050090000007
ngktp 5
etotal -14.4767588020000009
acell 9.0314853673E+00 9.0314853673E+00 9.0314853673E+00 Bohr
tsmear .090
ngktp 3
etotal -14.4693381920000004
ngktp 4
etotal -14.4705323119999996
ngktp 5
etotal -14.4710104729999998
acell 9.0097992776E+00 9.0097992776E+00 9.0097992776E+00 Bohr
tsmear .085
ngktp 3
etotal -14.4637095020000004
ngktp 4
etotal -14.4650097819999992
ngktp 5
etotal -14.4655092550000006
acell 8.9903014570E+00 8.9903014570E+00 8.9903014570E+00 Bohr
tsmear .080
ngktp 3
etotal -14.4583227870000002
ngktp 4
etotal -14.4597506730000003
ngktp 5
etotal -14.4602661260000005
acell 8.9720369728E+00 8.9720369728E+00 8.9720369728E+00 Bohr
tsmear .075
ngktp 3
etotal -14.4531911770000008
ngktp 4
etotal -14.4547673799999998
ngktp 5
etotal -14.4552993749999992
acell 8.9509551813E+00 8.9509551813E+00 8.9509551813E+00 Bohr
tsmear .070
ngktp 3
etotal -14.4483291230000006
ngktp 4
etotal -14.4500732400000000
ngktp 5
etotal -14.4506203119999999
acell 8.9334013049E+00 8.9334013049E+00 8.9334013049E+00 Bohr
tsmear .065
ngktp 3
etotal -14.4437556499999999
ngktp 4
etotal -14.4456819060000008
ngktp 5
etotal -14.4462396860000002
acell 8.9171377434E+00 8.9171377434E+00 8.9171377434E+00 Bohr
tsmear .060
ngktp 3
etotal -14.4394963470000004
ngktp 4
etotal -14.4416064550000005
ngktp 5
etotal -14.4421657299999993
acell 8.8999151658E+00 8.8999151658E+00 8.8999151658E+00 Bohr
tsmear .055
ngktp 3
etotal -14.4355861900000004
ngktp 4
etotal -14.4378613910000002
ngktp 5
etotal -14.4384040710000008
acell 8.8847685341E+00 8.8847685341E+00 8.8847685341E+00 Bohr
tsmear .050
ngktp 3
etotal -14.4320710030000008
ngktp 4
etotal -14.4344650059999999
ngktp 5
etotal -14.4349598239999999
acell 8.8723251860E+00 8.8723251860E+00 8.8723251860E+00 Bohr
tsmear .045
ngktp 3
etotal -14.4290244300000001
ngktp 4
etotal -14.4314434229999993
ngktp 5
etotal -14.4318402159999994
acell 8.8633441809E+00 8.8633441809E+00 8.8633441809E+00 Bohr
tsmear .040
ngktp 3
etotal -14.4264765290000003
ngktp 4
etotal -14.4288333229999992
ngktp 5
etotal -14.4287549259999999
acell 8.7876675414E+00 8.7876675414E+00 8.7876675414E+00 Bohr
tsmear .035
ngktp 3
etotal -14.4244645089999999
ngktp 4
etotal -14.4266773490000002
ngktp 5
etotal -14.4266739170000005
acell 8.8634185040E+00 8.8634185040E+00 8.8634185040E+00 Bohr
tsmear .030
ngktp 3
etotal -14.4229991369999997
ngktp 4
etotal -14.4250038650000008
ngktp 5
etotal -14.4247321950000007
acell 8.8708369607E+00 8.8708369607E+00 8.8708369607E+00 Bohr
tsmear .025
ngktp 3
etotal -14.4220585319999994
ngktp 4
etotal -14.4237960100000002
ngktp 5
etotal -14.4232736760000009
acell 8.8814700392E+00 8.8814700392E+00 8.8814700392E+00 Bohr
tsmear .020
ngktp 3
etotal -14.4215775799999992
ngktp 4
etotal -14.4229714399999995
ngktp 5
etotal -14.4222958739999996
acell 8.8916673425E+00 8.8916673425E+00 8.8916673425E+00 Bohr
tsmear .015
ngktp 3
etotal -14.4214245749999996
ngktp 4
etotal -14.4223916939999999
acell 8.9198420305E+00 8.9198420305E+00 8.9198420305E+00 Bohr
tsmear .010
ngktp 3
etotal -14.4214088310000008
ngktp 4
etotal -14.4219243299999995
acell 8.9210409244E+00 8.9210409244E+00 8.9210409244E+00 Bohr
ngkpt_vec_vec
['3 4 5', '3 4 5', '3 4 5', '3 4 5', '3 4 5', '3 4 5', '3 4 5', '3 4 5', '3 4 5', '3 4 5', '3 4 5', '3 4 5', '3 4 5', '3 4 5', '3 4 5', '3 4 5', '3 4 5', '3 4 5', '3 4 5', '3 4 5', '3 4 5', '3 4 5', '3 4 5', '3 4 5', '3 4 5', '3 4 5', '3 4 5', '3 4 5', '3 4 5', '3 4 5', '3 4', '3 4', '3 4', '3 4', '3 4', '3 4', '3 4', '3 4', '3 4', '3 4', '3 4', '3 4', '3 4', '3 4', '3 4', '3 4', '3 4', '3 4', '3 4', '3 4', '3 4', '3 4', '3 4', '3 4', '3 4', '3 4', '3 4', '3 4', '3 4', '3 4', '3 4', '3 4', '3 4', '3 4', '3 4', '3 4', '3 4', '3 4', '3 4', '3 4', '3 4', '3 4', '3 4', '3 4', '3 4', '3 4', '3 4', '3 4', '3 4', '3 4', '3 4 5', '3 4 5', '3 4 5', '3 4 5', '3 4 5', '3 4 5', '3 4 5', '3 4 5', '3 4 5', '3 4 5', '3 4 5', '3 4 5', '3 4 5', '3 4 5', '3 4 5', '3 4 5', '3 4 5', '3 4', '3 4']
etotal_vec_vec
['-15.1828098090000001 -15.1839055629999997 -15.1837766970000008', '-15.1730481509999997 -15.1741416460000007 -15.1740094689999996', '-15.1632993210000002 -15.1643904460000005 -15.1642549100000004', '-15.1535635749999997 -15.1546522259999996 -15.1545132850000002', '-15.1438409800000002 -15.1449272449999999 -15.1447848490000005', '-15.1341320740000000 -15.1352157649999999 -15.1350698569999995', '-15.1244370610000001 -15.1255180710000001 -15.1253685739999995', '-15.1147560740000007 -15.1158344309999997 -15.1156813000000003', '-15.1050894499999995 -15.1061651569999995 -15.1060082910000002', '-15.0954376089999993 -15.0965105350000002 -15.0963499090000006', '-15.0858007799999996 -15.0868708730000005 -15.0867064230000008', '-15.0761792359999998 -15.0772464750000008 -15.0770781270000001', '-15.0665733510000006 -15.0676376399999992 -15.0674652489999996', '-15.0569834100000008 -15.0580446660000007 -15.0578682209999997', '-15.0474097479999998 -15.0484678810000005 -15.0482873500000007', '-15.0378527050000006 -15.0389076339999992 -15.0387229080000004', '-15.0283125949999992 -15.0293642599999995 -15.0291752869999993', '-15.0187897689999996 -15.0198380749999991 -15.0196448549999992', '-15.0092845629999996 -15.0103294260000002 -15.0101319429999993', '-14.9997973350000002 -15.0008386690000002 -15.0006369270000004', '-14.9903284550000002 -14.9913661579999999 -14.9911601640000001', '-14.9808782849999993 -14.9819122829999998 -14.9817020270000008', '-14.9714472020000002 -14.9724774020000009 -14.9722628520000001', '-14.9620355790000001 -14.9630618860000002 -14.9628430290000001', '-14.9526438160000001 -14.9536661239999997 -14.9534428980000005', '-14.9432723119999995 -14.9442905110000002 -14.9440629089999995', '-14.9339214729999998 -14.9349354519999995 -14.9347034819999998', '-14.9245916879999996 -14.9256013620000001 -14.9253650720000000', '-14.9152833890000007 -14.9162886500000003 -14.9160480389999996', '-14.9059969839999997 -14.9069977330000007 -14.9067527900000005', '-14.8967329460000002 -14.8977290199999999', '-14.8874916099999997 -14.8884829560000007', '-14.8782735000000006 -14.8792599110000001', '-14.8690790029999995 -14.8700603170000001', '-14.8599084640000001 -14.8608845949999999', '-14.8507625329999993 -14.8517331559999999', '-14.8416414799999998 -14.8426064869999994', '-14.8325459419999994 -14.8335050469999992', '-14.8234761959999997 -14.8244293119999995', '-14.8144326769999992 -14.8153797780000005', '-14.8054159700000003 -14.8063569279999996', '-14.7964265580000003 -14.7973612520000000', '-14.7874646230000000 -14.7883932219999998', '-14.7785309900000001 -14.7794533959999992', '-14.7696260580000001 -14.7705422160000008', '-14.7607503189999996 -14.7616602930000003', '-14.7519043050000001 -14.7528082160000000', '-14.7430886440000002 -14.7439864919999994', '-14.7343039549999997 -14.7351957349999996', '-14.7255509569999994 -14.7264365710000007', '-14.7168303179999995 -14.7177098090000005', '-14.7081427849999997 -14.7090163809999996', '-14.6994892999999998 -14.7003571659999999', '-14.6908707900000000 -14.6917330649999993', '-14.6822882329999995 -14.6831450980000007', '-14.6737428849999993 -14.6745942920000001', '-14.6652361639999995 -14.6660816870000001', '-14.6567692570000006 -14.6576086540000006', '-14.6483437740000006 -14.6491768459999996', '-14.6399613290000001 -14.6407878470000004', '-14.6316239770000003 -14.6324435479999995', '-14.6233338550000003 -14.6241463270000001', '-14.6150932030000007 -14.6158986710000001', '-14.6069044679999998 -14.6077038249999998', '-14.5987707039999997 -14.5995650920000006', '-14.5906959290000007 -14.5914864380000004', '-14.5826847290000003 -14.5834724970000007', '-14.5747427379999994 -14.5755291200000006', '-14.5668761139999994 -14.5676626870000003', '-14.5590917419999997 -14.5598798299999999', '-14.5513960779999998 -14.5521869840000004', '-14.5437947279999999 -14.5445912110000002', '-14.5362952219999997 -14.5370999479999998', '-14.5289071050000000 -14.5297236190000003', '-14.5216414250000003 -14.5224740089999997', '-14.5145100859999996 -14.5153625819999998', '-14.5075242660000008 -14.5084006530000007', '-14.5006946069999998 -14.5016009750000006', '-14.4940335250000008 -14.4949768070000005', '-14.4875551439999999 -14.4885427300000007', '-14.4812721490000005 -14.4823137640000006 -14.4827429649999999', '-14.4751962780000003 -14.4763050090000007 -14.4767588020000009', '-14.4693381920000004 -14.4705323119999996 -14.4710104729999998', '-14.4637095020000004 -14.4650097819999992 -14.4655092550000006', '-14.4583227870000002 -14.4597506730000003 -14.4602661260000005', '-14.4531911770000008 -14.4547673799999998 -14.4552993749999992', '-14.4483291230000006 -14.4500732400000000 -14.4506203119999999', '-14.4437556499999999 -14.4456819060000008 -14.4462396860000002', '-14.4394963470000004 -14.4416064550000005 -14.4421657299999993', '-14.4355861900000004 -14.4378613910000002 -14.4384040710000008', '-14.4320710030000008 -14.4344650059999999 -14.4349598239999999', '-14.4290244300000001 -14.4314434229999993 -14.4318402159999994', '-14.4264765290000003 -14.4288333229999992 -14.4287549259999999', '-14.4244645089999999 -14.4266773490000002 -14.4266739170000005', '-14.4229991369999997 -14.4250038650000008 -14.4247321950000007', '-14.4220585319999994 -14.4237960100000002 -14.4232736760000009', '-14.4215775799999992 -14.4229714399999995 -14.4222958739999996', '-14.4214245749999996 -14.4223916939999999', '-14.4214088310000008 -14.4219243299999995']
Conv acell 9.9091154262
Conv tsmear .495
